(set-logic QF_LRA)
(declare-fun X0 () Real )
(declare-fun Y0 () Real )
(declare-fun X1 () Real )
(declare-fun Y1 () Real )
(declare-fun X2 () Real )
(declare-fun Y2 () Real )
(declare-fun X3 () Real )
(declare-fun Y3 () Real )
(declare-fun X4 () Real )
(declare-fun Y4 () Real )
(declare-fun X5 () Real )
(declare-fun Y5 () Real )
(declare-fun X6 () Real )
(declare-fun Y6 () Real )
(declare-fun X7 () Real )
(declare-fun Y7 () Real )
(declare-fun X8 () Real )
(declare-fun Y8 () Real )
(declare-fun X9 () Real )
(declare-fun Y9 () Real )
(declare-fun X10 () Real )
(declare-fun Y10 () Real )
(declare-fun X11 () Real )
(declare-fun Y11 () Real )
(declare-fun X12 () Real )
(declare-fun Y12 () Real )
(declare-fun X13 () Real )
(declare-fun Y13 () Real )
(declare-fun X14 () Real )
(declare-fun Y14 () Real )
(declare-fun X15 () Real )
(declare-fun Y15 () Real )
(declare-fun X16 () Real )
(declare-fun Y16 () Real )
(declare-fun X17 () Real )
(declare-fun Y17 () Real )
(declare-fun Z () Real )
(declare-fun k () Real )
(assert (let
(( $goal (>= Z k) ))
(let
((
$phi ( and 
( or ( <= ( + X0 86 ) X1 )  ( <= ( + X1 34 ) X0 )  ( <= ( + Y0 66 ) Y1 )  ( <= ( + Y1 22 ) Y0 )  )
( or ( <= ( + X0 86 ) X2 )  ( <= ( + X2 68 ) X0 )  ( <= ( + Y0 66 ) Y2 )  ( <= ( + Y2 56 ) Y0 )  )
( or ( <= ( + X0 86 ) X3 )  ( <= ( + X3 46 ) X0 )  ( <= ( + Y0 66 ) Y3 )  ( <= ( + Y3 32 ) Y0 )  )
( or ( <= ( + X0 86 ) X4 )  ( <= ( + X4 25 ) X0 )  ( <= ( + Y0 66 ) Y4 )  ( <= ( + Y4 73 ) Y0 )  )
( or ( <= ( + X0 86 ) X5 )  ( <= ( + X5 29 ) X0 )  ( <= ( + Y0 66 ) Y5 )  ( <= ( + Y5 97 ) Y0 )  )
( or ( <= ( + X0 86 ) X6 )  ( <= ( + X6 38 ) X0 )  ( <= ( + Y0 66 ) Y6 )  ( <= ( + Y6 90 ) Y0 )  )
( or ( <= ( + X0 86 ) X7 )  ( <= ( + X7 64 ) X0 )  ( <= ( + Y0 66 ) Y7 )  ( <= ( + Y7 65 ) Y0 )  )
( or ( <= ( + X0 86 ) X8 )  ( <= ( + X8 52 ) X0 )  ( <= ( + Y0 66 ) Y8 )  ( <= ( + Y8 76 ) Y0 )  )
( or ( <= ( + X0 86 ) X9 )  ( <= ( + X9 35 ) X0 )  ( <= ( + Y0 66 ) Y9 )  ( <= ( + Y9 16 ) Y0 )  )
( or ( <= ( + X0 86 ) X10 )  ( <= ( + X10 58 ) X0 )  ( <= ( + Y0 66 ) Y10 )  ( <= ( + Y10 4 ) Y0 )  )
( or ( <= ( + X0 86 ) X11 )  ( <= ( + X11 22 ) X0 )  ( <= ( + Y0 66 ) Y11 )  ( <= ( + Y11 40 ) Y0 )  )
( or ( <= ( + X0 86 ) X12 )  ( <= ( + X12 32 ) X0 )  ( <= ( + Y0 66 ) Y12 )  ( <= ( + Y12 12 ) Y0 )  )
( or ( <= ( + X0 86 ) X13 )  ( <= ( + X13 75 ) X0 )  ( <= ( + Y0 66 ) Y13 )  ( <= ( + Y13 90 ) Y0 )  )
( or ( <= ( + X0 86 ) X14 )  ( <= ( + X14 50 ) X0 )  ( <= ( + Y0 66 ) Y14 )  ( <= ( + Y14 73 ) Y0 )  )
( or ( <= ( + X0 86 ) X15 )  ( <= ( + X15 59 ) X0 )  ( <= ( + Y0 66 ) Y15 )  ( <= ( + Y15 79 ) Y0 )  )
( or ( <= ( + X0 86 ) X16 )  ( <= ( + X16 10 ) X0 )  ( <= ( + Y0 66 ) Y16 )  ( <= ( + Y16 35 ) Y0 )  )
( or ( <= ( + X0 86 ) X17 )  ( <= ( + X17 33 ) X0 )  ( <= ( + Y0 66 ) Y17 )  ( <= ( + Y17 49 ) Y0 )  )
( or ( <= ( + X1 34 ) X2 )  ( <= ( + X2 68 ) X1 )  ( <= ( + Y1 22 ) Y2 )  ( <= ( + Y2 56 ) Y1 )  )
( or ( <= ( + X1 34 ) X3 )  ( <= ( + X3 46 ) X1 )  ( <= ( + Y1 22 ) Y3 )  ( <= ( + Y3 32 ) Y1 )  )
( or ( <= ( + X1 34 ) X4 )  ( <= ( + X4 25 ) X1 )  ( <= ( + Y1 22 ) Y4 )  ( <= ( + Y4 73 ) Y1 )  )
( or ( <= ( + X1 34 ) X5 )  ( <= ( + X5 29 ) X1 )  ( <= ( + Y1 22 ) Y5 )  ( <= ( + Y5 97 ) Y1 )  )
( or ( <= ( + X1 34 ) X6 )  ( <= ( + X6 38 ) X1 )  ( <= ( + Y1 22 ) Y6 )  ( <= ( + Y6 90 ) Y1 )  )
( or ( <= ( + X1 34 ) X7 )  ( <= ( + X7 64 ) X1 )  ( <= ( + Y1 22 ) Y7 )  ( <= ( + Y7 65 ) Y1 )  )
( or ( <= ( + X1 34 ) X8 )  ( <= ( + X8 52 ) X1 )  ( <= ( + Y1 22 ) Y8 )  ( <= ( + Y8 76 ) Y1 )  )
( or ( <= ( + X1 34 ) X9 )  ( <= ( + X9 35 ) X1 )  ( <= ( + Y1 22 ) Y9 )  ( <= ( + Y9 16 ) Y1 )  )
( or ( <= ( + X1 34 ) X10 )  ( <= ( + X10 58 ) X1 )  ( <= ( + Y1 22 ) Y10 )  ( <= ( + Y10 4 ) Y1 )  )
( or ( <= ( + X1 34 ) X11 )  ( <= ( + X11 22 ) X1 )  ( <= ( + Y1 22 ) Y11 )  ( <= ( + Y11 40 ) Y1 )  )
( or ( <= ( + X1 34 ) X12 )  ( <= ( + X12 32 ) X1 )  ( <= ( + Y1 22 ) Y12 )  ( <= ( + Y12 12 ) Y1 )  )
( or ( <= ( + X1 34 ) X13 )  ( <= ( + X13 75 ) X1 )  ( <= ( + Y1 22 ) Y13 )  ( <= ( + Y13 90 ) Y1 )  )
( or ( <= ( + X1 34 ) X14 )  ( <= ( + X14 50 ) X1 )  ( <= ( + Y1 22 ) Y14 )  ( <= ( + Y14 73 ) Y1 )  )
( or ( <= ( + X1 34 ) X15 )  ( <= ( + X15 59 ) X1 )  ( <= ( + Y1 22 ) Y15 )  ( <= ( + Y15 79 ) Y1 )  )
( or ( <= ( + X1 34 ) X16 )  ( <= ( + X16 10 ) X1 )  ( <= ( + Y1 22 ) Y16 )  ( <= ( + Y16 35 ) Y1 )  )
( or ( <= ( + X1 34 ) X17 )  ( <= ( + X17 33 ) X1 )  ( <= ( + Y1 22 ) Y17 )  ( <= ( + Y17 49 ) Y1 )  )
( or ( <= ( + X2 68 ) X3 )  ( <= ( + X3 46 ) X2 )  ( <= ( + Y2 56 ) Y3 )  ( <= ( + Y3 32 ) Y2 )  )
( or ( <= ( + X2 68 ) X4 )  ( <= ( + X4 25 ) X2 )  ( <= ( + Y2 56 ) Y4 )  ( <= ( + Y4 73 ) Y2 )  )
( or ( <= ( + X2 68 ) X5 )  ( <= ( + X5 29 ) X2 )  ( <= ( + Y2 56 ) Y5 )  ( <= ( + Y5 97 ) Y2 )  )
( or ( <= ( + X2 68 ) X6 )  ( <= ( + X6 38 ) X2 )  ( <= ( + Y2 56 ) Y6 )  ( <= ( + Y6 90 ) Y2 )  )
( or ( <= ( + X2 68 ) X7 )  ( <= ( + X7 64 ) X2 )  ( <= ( + Y2 56 ) Y7 )  ( <= ( + Y7 65 ) Y2 )  )
( or ( <= ( + X2 68 ) X8 )  ( <= ( + X8 52 ) X2 )  ( <= ( + Y2 56 ) Y8 )  ( <= ( + Y8 76 ) Y2 )  )
( or ( <= ( + X2 68 ) X9 )  ( <= ( + X9 35 ) X2 )  ( <= ( + Y2 56 ) Y9 )  ( <= ( + Y9 16 ) Y2 )  )
( or ( <= ( + X2 68 ) X10 )  ( <= ( + X10 58 ) X2 )  ( <= ( + Y2 56 ) Y10 )  ( <= ( + Y10 4 ) Y2 )  )
( or ( <= ( + X2 68 ) X11 )  ( <= ( + X11 22 ) X2 )  ( <= ( + Y2 56 ) Y11 )  ( <= ( + Y11 40 ) Y2 )  )
( or ( <= ( + X2 68 ) X12 )  ( <= ( + X12 32 ) X2 )  ( <= ( + Y2 56 ) Y12 )  ( <= ( + Y12 12 ) Y2 )  )
( or ( <= ( + X2 68 ) X13 )  ( <= ( + X13 75 ) X2 )  ( <= ( + Y2 56 ) Y13 )  ( <= ( + Y13 90 ) Y2 )  )
( or ( <= ( + X2 68 ) X14 )  ( <= ( + X14 50 ) X2 )  ( <= ( + Y2 56 ) Y14 )  ( <= ( + Y14 73 ) Y2 )  )
( or ( <= ( + X2 68 ) X15 )  ( <= ( + X15 59 ) X2 )  ( <= ( + Y2 56 ) Y15 )  ( <= ( + Y15 79 ) Y2 )  )
( or ( <= ( + X2 68 ) X16 )  ( <= ( + X16 10 ) X2 )  ( <= ( + Y2 56 ) Y16 )  ( <= ( + Y16 35 ) Y2 )  )
( or ( <= ( + X2 68 ) X17 )  ( <= ( + X17 33 ) X2 )  ( <= ( + Y2 56 ) Y17 )  ( <= ( + Y17 49 ) Y2 )  )
( or ( <= ( + X3 46 ) X4 )  ( <= ( + X4 25 ) X3 )  ( <= ( + Y3 32 ) Y4 )  ( <= ( + Y4 73 ) Y3 )  )
( or ( <= ( + X3 46 ) X5 )  ( <= ( + X5 29 ) X3 )  ( <= ( + Y3 32 ) Y5 )  ( <= ( + Y5 97 ) Y3 )  )
( or ( <= ( + X3 46 ) X6 )  ( <= ( + X6 38 ) X3 )  ( <= ( + Y3 32 ) Y6 )  ( <= ( + Y6 90 ) Y3 )  )
( or ( <= ( + X3 46 ) X7 )  ( <= ( + X7 64 ) X3 )  ( <= ( + Y3 32 ) Y7 )  ( <= ( + Y7 65 ) Y3 )  )
( or ( <= ( + X3 46 ) X8 )  ( <= ( + X8 52 ) X3 )  ( <= ( + Y3 32 ) Y8 )  ( <= ( + Y8 76 ) Y3 )  )
( or ( <= ( + X3 46 ) X9 )  ( <= ( + X9 35 ) X3 )  ( <= ( + Y3 32 ) Y9 )  ( <= ( + Y9 16 ) Y3 )  )
( or ( <= ( + X3 46 ) X10 )  ( <= ( + X10 58 ) X3 )  ( <= ( + Y3 32 ) Y10 )  ( <= ( + Y10 4 ) Y3 )  )
( or ( <= ( + X3 46 ) X11 )  ( <= ( + X11 22 ) X3 )  ( <= ( + Y3 32 ) Y11 )  ( <= ( + Y11 40 ) Y3 )  )
( or ( <= ( + X3 46 ) X12 )  ( <= ( + X12 32 ) X3 )  ( <= ( + Y3 32 ) Y12 )  ( <= ( + Y12 12 ) Y3 )  )
( or ( <= ( + X3 46 ) X13 )  ( <= ( + X13 75 ) X3 )  ( <= ( + Y3 32 ) Y13 )  ( <= ( + Y13 90 ) Y3 )  )
( or ( <= ( + X3 46 ) X14 )  ( <= ( + X14 50 ) X3 )  ( <= ( + Y3 32 ) Y14 )  ( <= ( + Y14 73 ) Y3 )  )
( or ( <= ( + X3 46 ) X15 )  ( <= ( + X15 59 ) X3 )  ( <= ( + Y3 32 ) Y15 )  ( <= ( + Y15 79 ) Y3 )  )
( or ( <= ( + X3 46 ) X16 )  ( <= ( + X16 10 ) X3 )  ( <= ( + Y3 32 ) Y16 )  ( <= ( + Y16 35 ) Y3 )  )
( or ( <= ( + X3 46 ) X17 )  ( <= ( + X17 33 ) X3 )  ( <= ( + Y3 32 ) Y17 )  ( <= ( + Y17 49 ) Y3 )  )
( or ( <= ( + X4 25 ) X5 )  ( <= ( + X5 29 ) X4 )  ( <= ( + Y4 73 ) Y5 )  ( <= ( + Y5 97 ) Y4 )  )
( or ( <= ( + X4 25 ) X6 )  ( <= ( + X6 38 ) X4 )  ( <= ( + Y4 73 ) Y6 )  ( <= ( + Y6 90 ) Y4 )  )
( or ( <= ( + X4 25 ) X7 )  ( <= ( + X7 64 ) X4 )  ( <= ( + Y4 73 ) Y7 )  ( <= ( + Y7 65 ) Y4 )  )
( or ( <= ( + X4 25 ) X8 )  ( <= ( + X8 52 ) X4 )  ( <= ( + Y4 73 ) Y8 )  ( <= ( + Y8 76 ) Y4 )  )
( or ( <= ( + X4 25 ) X9 )  ( <= ( + X9 35 ) X4 )  ( <= ( + Y4 73 ) Y9 )  ( <= ( + Y9 16 ) Y4 )  )
( or ( <= ( + X4 25 ) X10 )  ( <= ( + X10 58 ) X4 )  ( <= ( + Y4 73 ) Y10 )  ( <= ( + Y10 4 ) Y4 )  )
( or ( <= ( + X4 25 ) X11 )  ( <= ( + X11 22 ) X4 )  ( <= ( + Y4 73 ) Y11 )  ( <= ( + Y11 40 ) Y4 )  )
( or ( <= ( + X4 25 ) X12 )  ( <= ( + X12 32 ) X4 )  ( <= ( + Y4 73 ) Y12 )  ( <= ( + Y12 12 ) Y4 )  )
( or ( <= ( + X4 25 ) X13 )  ( <= ( + X13 75 ) X4 )  ( <= ( + Y4 73 ) Y13 )  ( <= ( + Y13 90 ) Y4 )  )
( or ( <= ( + X4 25 ) X14 )  ( <= ( + X14 50 ) X4 )  ( <= ( + Y4 73 ) Y14 )  ( <= ( + Y14 73 ) Y4 )  )
( or ( <= ( + X4 25 ) X15 )  ( <= ( + X15 59 ) X4 )  ( <= ( + Y4 73 ) Y15 )  ( <= ( + Y15 79 ) Y4 )  )
( or ( <= ( + X4 25 ) X16 )  ( <= ( + X16 10 ) X4 )  ( <= ( + Y4 73 ) Y16 )  ( <= ( + Y16 35 ) Y4 )  )
( or ( <= ( + X4 25 ) X17 )  ( <= ( + X17 33 ) X4 )  ( <= ( + Y4 73 ) Y17 )  ( <= ( + Y17 49 ) Y4 )  )
( or ( <= ( + X5 29 ) X6 )  ( <= ( + X6 38 ) X5 )  ( <= ( + Y5 97 ) Y6 )  ( <= ( + Y6 90 ) Y5 )  )
( or ( <= ( + X5 29 ) X7 )  ( <= ( + X7 64 ) X5 )  ( <= ( + Y5 97 ) Y7 )  ( <= ( + Y7 65 ) Y5 )  )
( or ( <= ( + X5 29 ) X8 )  ( <= ( + X8 52 ) X5 )  ( <= ( + Y5 97 ) Y8 )  ( <= ( + Y8 76 ) Y5 )  )
( or ( <= ( + X5 29 ) X9 )  ( <= ( + X9 35 ) X5 )  ( <= ( + Y5 97 ) Y9 )  ( <= ( + Y9 16 ) Y5 )  )
( or ( <= ( + X5 29 ) X10 )  ( <= ( + X10 58 ) X5 )  ( <= ( + Y5 97 ) Y10 )  ( <= ( + Y10 4 ) Y5 )  )
( or ( <= ( + X5 29 ) X11 )  ( <= ( + X11 22 ) X5 )  ( <= ( + Y5 97 ) Y11 )  ( <= ( + Y11 40 ) Y5 )  )
( or ( <= ( + X5 29 ) X12 )  ( <= ( + X12 32 ) X5 )  ( <= ( + Y5 97 ) Y12 )  ( <= ( + Y12 12 ) Y5 )  )
( or ( <= ( + X5 29 ) X13 )  ( <= ( + X13 75 ) X5 )  ( <= ( + Y5 97 ) Y13 )  ( <= ( + Y13 90 ) Y5 )  )
( or ( <= ( + X5 29 ) X14 )  ( <= ( + X14 50 ) X5 )  ( <= ( + Y5 97 ) Y14 )  ( <= ( + Y14 73 ) Y5 )  )
( or ( <= ( + X5 29 ) X15 )  ( <= ( + X15 59 ) X5 )  ( <= ( + Y5 97 ) Y15 )  ( <= ( + Y15 79 ) Y5 )  )
( or ( <= ( + X5 29 ) X16 )  ( <= ( + X16 10 ) X5 )  ( <= ( + Y5 97 ) Y16 )  ( <= ( + Y16 35 ) Y5 )  )
( or ( <= ( + X5 29 ) X17 )  ( <= ( + X17 33 ) X5 )  ( <= ( + Y5 97 ) Y17 )  ( <= ( + Y17 49 ) Y5 )  )
( or ( <= ( + X6 38 ) X7 )  ( <= ( + X7 64 ) X6 )  ( <= ( + Y6 90 ) Y7 )  ( <= ( + Y7 65 ) Y6 )  )
( or ( <= ( + X6 38 ) X8 )  ( <= ( + X8 52 ) X6 )  ( <= ( + Y6 90 ) Y8 )  ( <= ( + Y8 76 ) Y6 )  )
( or ( <= ( + X6 38 ) X9 )  ( <= ( + X9 35 ) X6 )  ( <= ( + Y6 90 ) Y9 )  ( <= ( + Y9 16 ) Y6 )  )
( or ( <= ( + X6 38 ) X10 )  ( <= ( + X10 58 ) X6 )  ( <= ( + Y6 90 ) Y10 )  ( <= ( + Y10 4 ) Y6 )  )
( or ( <= ( + X6 38 ) X11 )  ( <= ( + X11 22 ) X6 )  ( <= ( + Y6 90 ) Y11 )  ( <= ( + Y11 40 ) Y6 )  )
( or ( <= ( + X6 38 ) X12 )  ( <= ( + X12 32 ) X6 )  ( <= ( + Y6 90 ) Y12 )  ( <= ( + Y12 12 ) Y6 )  )
( or ( <= ( + X6 38 ) X13 )  ( <= ( + X13 75 ) X6 )  ( <= ( + Y6 90 ) Y13 )  ( <= ( + Y13 90 ) Y6 )  )
( or ( <= ( + X6 38 ) X14 )  ( <= ( + X14 50 ) X6 )  ( <= ( + Y6 90 ) Y14 )  ( <= ( + Y14 73 ) Y6 )  )
( or ( <= ( + X6 38 ) X15 )  ( <= ( + X15 59 ) X6 )  ( <= ( + Y6 90 ) Y15 )  ( <= ( + Y15 79 ) Y6 )  )
( or ( <= ( + X6 38 ) X16 )  ( <= ( + X16 10 ) X6 )  ( <= ( + Y6 90 ) Y16 )  ( <= ( + Y16 35 ) Y6 )  )
( or ( <= ( + X6 38 ) X17 )  ( <= ( + X17 33 ) X6 )  ( <= ( + Y6 90 ) Y17 )  ( <= ( + Y17 49 ) Y6 )  )
( or ( <= ( + X7 64 ) X8 )  ( <= ( + X8 52 ) X7 )  ( <= ( + Y7 65 ) Y8 )  ( <= ( + Y8 76 ) Y7 )  )
( or ( <= ( + X7 64 ) X9 )  ( <= ( + X9 35 ) X7 )  ( <= ( + Y7 65 ) Y9 )  ( <= ( + Y9 16 ) Y7 )  )
( or ( <= ( + X7 64 ) X10 )  ( <= ( + X10 58 ) X7 )  ( <= ( + Y7 65 ) Y10 )  ( <= ( + Y10 4 ) Y7 )  )
( or ( <= ( + X7 64 ) X11 )  ( <= ( + X11 22 ) X7 )  ( <= ( + Y7 65 ) Y11 )  ( <= ( + Y11 40 ) Y7 )  )
( or ( <= ( + X7 64 ) X12 )  ( <= ( + X12 32 ) X7 )  ( <= ( + Y7 65 ) Y12 )  ( <= ( + Y12 12 ) Y7 )  )
( or ( <= ( + X7 64 ) X13 )  ( <= ( + X13 75 ) X7 )  ( <= ( + Y7 65 ) Y13 )  ( <= ( + Y13 90 ) Y7 )  )
( or ( <= ( + X7 64 ) X14 )  ( <= ( + X14 50 ) X7 )  ( <= ( + Y7 65 ) Y14 )  ( <= ( + Y14 73 ) Y7 )  )
( or ( <= ( + X7 64 ) X15 )  ( <= ( + X15 59 ) X7 )  ( <= ( + Y7 65 ) Y15 )  ( <= ( + Y15 79 ) Y7 )  )
( or ( <= ( + X7 64 ) X16 )  ( <= ( + X16 10 ) X7 )  ( <= ( + Y7 65 ) Y16 )  ( <= ( + Y16 35 ) Y7 )  )
( or ( <= ( + X7 64 ) X17 )  ( <= ( + X17 33 ) X7 )  ( <= ( + Y7 65 ) Y17 )  ( <= ( + Y17 49 ) Y7 )  )
( or ( <= ( + X8 52 ) X9 )  ( <= ( + X9 35 ) X8 )  ( <= ( + Y8 76 ) Y9 )  ( <= ( + Y9 16 ) Y8 )  )
( or ( <= ( + X8 52 ) X10 )  ( <= ( + X10 58 ) X8 )  ( <= ( + Y8 76 ) Y10 )  ( <= ( + Y10 4 ) Y8 )  )
( or ( <= ( + X8 52 ) X11 )  ( <= ( + X11 22 ) X8 )  ( <= ( + Y8 76 ) Y11 )  ( <= ( + Y11 40 ) Y8 )  )
( or ( <= ( + X8 52 ) X12 )  ( <= ( + X12 32 ) X8 )  ( <= ( + Y8 76 ) Y12 )  ( <= ( + Y12 12 ) Y8 )  )
( or ( <= ( + X8 52 ) X13 )  ( <= ( + X13 75 ) X8 )  ( <= ( + Y8 76 ) Y13 )  ( <= ( + Y13 90 ) Y8 )  )
( or ( <= ( + X8 52 ) X14 )  ( <= ( + X14 50 ) X8 )  ( <= ( + Y8 76 ) Y14 )  ( <= ( + Y14 73 ) Y8 )  )
( or ( <= ( + X8 52 ) X15 )  ( <= ( + X15 59 ) X8 )  ( <= ( + Y8 76 ) Y15 )  ( <= ( + Y15 79 ) Y8 )  )
( or ( <= ( + X8 52 ) X16 )  ( <= ( + X16 10 ) X8 )  ( <= ( + Y8 76 ) Y16 )  ( <= ( + Y16 35 ) Y8 )  )
( or ( <= ( + X8 52 ) X17 )  ( <= ( + X17 33 ) X8 )  ( <= ( + Y8 76 ) Y17 )  ( <= ( + Y17 49 ) Y8 )  )
( or ( <= ( + X9 35 ) X10 )  ( <= ( + X10 58 ) X9 )  ( <= ( + Y9 16 ) Y10 )  ( <= ( + Y10 4 ) Y9 )  )
( or ( <= ( + X9 35 ) X11 )  ( <= ( + X11 22 ) X9 )  ( <= ( + Y9 16 ) Y11 )  ( <= ( + Y11 40 ) Y9 )  )
( or ( <= ( + X9 35 ) X12 )  ( <= ( + X12 32 ) X9 )  ( <= ( + Y9 16 ) Y12 )  ( <= ( + Y12 12 ) Y9 )  )
( or ( <= ( + X9 35 ) X13 )  ( <= ( + X13 75 ) X9 )  ( <= ( + Y9 16 ) Y13 )  ( <= ( + Y13 90 ) Y9 )  )
( or ( <= ( + X9 35 ) X14 )  ( <= ( + X14 50 ) X9 )  ( <= ( + Y9 16 ) Y14 )  ( <= ( + Y14 73 ) Y9 )  )
( or ( <= ( + X9 35 ) X15 )  ( <= ( + X15 59 ) X9 )  ( <= ( + Y9 16 ) Y15 )  ( <= ( + Y15 79 ) Y9 )  )
( or ( <= ( + X9 35 ) X16 )  ( <= ( + X16 10 ) X9 )  ( <= ( + Y9 16 ) Y16 )  ( <= ( + Y16 35 ) Y9 )  )
( or ( <= ( + X9 35 ) X17 )  ( <= ( + X17 33 ) X9 )  ( <= ( + Y9 16 ) Y17 )  ( <= ( + Y17 49 ) Y9 )  )
( or ( <= ( + X10 58 ) X11 )  ( <= ( + X11 22 ) X10 )  ( <= ( + Y10 4 ) Y11 )  ( <= ( + Y11 40 ) Y10 )  )
( or ( <= ( + X10 58 ) X12 )  ( <= ( + X12 32 ) X10 )  ( <= ( + Y10 4 ) Y12 )  ( <= ( + Y12 12 ) Y10 )  )
( or ( <= ( + X10 58 ) X13 )  ( <= ( + X13 75 ) X10 )  ( <= ( + Y10 4 ) Y13 )  ( <= ( + Y13 90 ) Y10 )  )
( or ( <= ( + X10 58 ) X14 )  ( <= ( + X14 50 ) X10 )  ( <= ( + Y10 4 ) Y14 )  ( <= ( + Y14 73 ) Y10 )  )
( or ( <= ( + X10 58 ) X15 )  ( <= ( + X15 59 ) X10 )  ( <= ( + Y10 4 ) Y15 )  ( <= ( + Y15 79 ) Y10 )  )
( or ( <= ( + X10 58 ) X16 )  ( <= ( + X16 10 ) X10 )  ( <= ( + Y10 4 ) Y16 )  ( <= ( + Y16 35 ) Y10 )  )
( or ( <= ( + X10 58 ) X17 )  ( <= ( + X17 33 ) X10 )  ( <= ( + Y10 4 ) Y17 )  ( <= ( + Y17 49 ) Y10 )  )
( or ( <= ( + X11 22 ) X12 )  ( <= ( + X12 32 ) X11 )  ( <= ( + Y11 40 ) Y12 )  ( <= ( + Y12 12 ) Y11 )  )
( or ( <= ( + X11 22 ) X13 )  ( <= ( + X13 75 ) X11 )  ( <= ( + Y11 40 ) Y13 )  ( <= ( + Y13 90 ) Y11 )  )
( or ( <= ( + X11 22 ) X14 )  ( <= ( + X14 50 ) X11 )  ( <= ( + Y11 40 ) Y14 )  ( <= ( + Y14 73 ) Y11 )  )
( or ( <= ( + X11 22 ) X15 )  ( <= ( + X15 59 ) X11 )  ( <= ( + Y11 40 ) Y15 )  ( <= ( + Y15 79 ) Y11 )  )
( or ( <= ( + X11 22 ) X16 )  ( <= ( + X16 10 ) X11 )  ( <= ( + Y11 40 ) Y16 )  ( <= ( + Y16 35 ) Y11 )  )
( or ( <= ( + X11 22 ) X17 )  ( <= ( + X17 33 ) X11 )  ( <= ( + Y11 40 ) Y17 )  ( <= ( + Y17 49 ) Y11 )  )
( or ( <= ( + X12 32 ) X13 )  ( <= ( + X13 75 ) X12 )  ( <= ( + Y12 12 ) Y13 )  ( <= ( + Y13 90 ) Y12 )  )
( or ( <= ( + X12 32 ) X14 )  ( <= ( + X14 50 ) X12 )  ( <= ( + Y12 12 ) Y14 )  ( <= ( + Y14 73 ) Y12 )  )
( or ( <= ( + X12 32 ) X15 )  ( <= ( + X15 59 ) X12 )  ( <= ( + Y12 12 ) Y15 )  ( <= ( + Y15 79 ) Y12 )  )
( or ( <= ( + X12 32 ) X16 )  ( <= ( + X16 10 ) X12 )  ( <= ( + Y12 12 ) Y16 )  ( <= ( + Y16 35 ) Y12 )  )
( or ( <= ( + X12 32 ) X17 )  ( <= ( + X17 33 ) X12 )  ( <= ( + Y12 12 ) Y17 )  ( <= ( + Y17 49 ) Y12 )  )
( or ( <= ( + X13 75 ) X14 )  ( <= ( + X14 50 ) X13 )  ( <= ( + Y13 90 ) Y14 )  ( <= ( + Y14 73 ) Y13 )  )
( or ( <= ( + X13 75 ) X15 )  ( <= ( + X15 59 ) X13 )  ( <= ( + Y13 90 ) Y15 )  ( <= ( + Y15 79 ) Y13 )  )
( or ( <= ( + X13 75 ) X16 )  ( <= ( + X16 10 ) X13 )  ( <= ( + Y13 90 ) Y16 )  ( <= ( + Y16 35 ) Y13 )  )
( or ( <= ( + X13 75 ) X17 )  ( <= ( + X17 33 ) X13 )  ( <= ( + Y13 90 ) Y17 )  ( <= ( + Y17 49 ) Y13 )  )
( or ( <= ( + X14 50 ) X15 )  ( <= ( + X15 59 ) X14 )  ( <= ( + Y14 73 ) Y15 )  ( <= ( + Y15 79 ) Y14 )  )
( or ( <= ( + X14 50 ) X16 )  ( <= ( + X16 10 ) X14 )  ( <= ( + Y14 73 ) Y16 )  ( <= ( + Y16 35 ) Y14 )  )
( or ( <= ( + X14 50 ) X17 )  ( <= ( + X17 33 ) X14 )  ( <= ( + Y14 73 ) Y17 )  ( <= ( + Y17 49 ) Y14 )  )
( or ( <= ( + X15 59 ) X16 )  ( <= ( + X16 10 ) X15 )  ( <= ( + Y15 79 ) Y16 )  ( <= ( + Y16 35 ) Y15 )  )
( or ( <= ( + X15 59 ) X17 )  ( <= ( + X17 33 ) X15 )  ( <= ( + Y15 79 ) Y17 )  ( <= ( + Y17 49 ) Y15 )  )
( or ( <= ( + X16 10 ) X17 )  ( <= ( + X17 33 ) X16 )  ( <= ( + Y16 35 ) Y17 )  ( <= ( + Y17 49 ) Y16 )  )
( >= X0 0)
( <= ( + X0 86) Z)
( >= Y0 0)
( <= ( + Y0 66 ) 100)
( >= X1 0)
( <= ( + X1 34) Z)
( >= Y1 0)
( <= ( + Y1 22 ) 100)
( >= X2 0)
( <= ( + X2 68) Z)
( >= Y2 0)
( <= ( + Y2 56 ) 100)
( >= X3 0)
( <= ( + X3 46) Z)
( >= Y3 0)
( <= ( + Y3 32 ) 100)
( >= X4 0)
( <= ( + X4 25) Z)
( >= Y4 0)
( <= ( + Y4 73 ) 100)
( >= X5 0)
( <= ( + X5 29) Z)
( >= Y5 0)
( <= ( + Y5 97 ) 100)
( >= X6 0)
( <= ( + X6 38) Z)
( >= Y6 0)
( <= ( + Y6 90 ) 100)
( >= X7 0)
( <= ( + X7 64) Z)
( >= Y7 0)
( <= ( + Y7 65 ) 100)
( >= X8 0)
( <= ( + X8 52) Z)
( >= Y8 0)
( <= ( + Y8 76 ) 100)
( >= X9 0)
( <= ( + X9 35) Z)
( >= Y9 0)
( <= ( + Y9 16 ) 100)
( >= X10 0)
( <= ( + X10 58) Z)
( >= Y10 0)
( <= ( + Y10 4 ) 100)
( >= X11 0)
( <= ( + X11 22) Z)
( >= Y11 0)
( <= ( + Y11 40 ) 100)
( >= X12 0)
( <= ( + X12 32) Z)
( >= Y12 0)
( <= ( + Y12 12 ) 100)
( >= X13 0)
( <= ( + X13 75) Z)
( >= Y13 0)
( <= ( + Y13 90 ) 100)
( >= X14 0)
( <= ( + X14 50) Z)
( >= Y14 0)
( <= ( + Y14 73 ) 100)
( >= X15 0)
( <= ( + X15 59) Z)
( >= Y15 0)
( <= ( + Y15 79 ) 100)
( >= X16 0)
( <= ( + X16 10) Z)
( >= Y16 0)
( <= ( + Y16 35 ) 100)
( >= X17 0)
( <= ( + X17 33) Z)
( >= Y17 0)
( <= ( + Y17 49 ) 100)
) )
)(=> $phi $goal))))